&CONTROL
    calculation   = "vc-relax"
    forc_conv_thr =  1.00000e-03
    max_seconds   =  8.64000e+04
    nstep         = 100
    outdir        = "tmp"
    prefix        = "Pt"
    pseudo_dir    = "pseudo"
    restart_mode  = "from_scratch"
    tprnfor       = .TRUE.
    tstress       = .TRUE.
/

&SYSTEM
    a                         =  7.85298e+00
    angle1(1)                 =  9.00000e+01
    angle1(2)                 =  1.29806e+02
    angle1(3)                 =  8.25075e+01
    angle1(4)                 =  1.53435e+02
    angle2(1)                 =  1.40194e+02
    angle2(2)                 =  0.00000e+00
    angle2(3)                 =  9.46232e+00
    angle2(4)                 =  0.00000e+00
    degauss                   =  2.00000e-02
    ecutrho                   =  5.76000e+02
    ecutwfc                   =  5.20000e+01
    ibrav                     = 2
    lspinorb                  = .TRUE.
    nat                       = 8
    noncolin                  = .TRUE.
    nosym                     = .FALSE.
    ntyp                      = 4
    occupations               = "smearing"
    smearing                  = "marzari-vanderbilt"
    starting_magnetization    =  0.00000e+00
    starting_magnetization(1) =  3.90512e-01
    starting_magnetization(2) =  3.90512e-01
    starting_magnetization(3) =  6.13514e-01
    starting_magnetization(4) =  4.47214e-01
/

&ELECTRONS
    conv_thr         =  1.00000e-08
    electron_maxstep = 200
    mixing_beta      =  7.00000e-01
    startingpot      = "atomic"
    startingwfc      = "atomic+random"
/

&IONS
    ion_dynamics = "bfgs"
/

&CELL
    cell_dofree    = "all"
    cell_dynamics  = "bfgs"
    press_conv_thr =  5.00000e-01
/

K_POINTS {automatic}
12 12 12  0 0 0

ATOMIC_SPECIES
Pt1   195.08400  Pt.rel-pz-n-rrkjus_psl.0.1.UPF
Pt2   195.08400  Pt.rel-pz-n-rrkjus_psl.0.1.UPF
Ti1    47.86700  Ti.rel-pz-spn-rrkjus_psl.1.0.0.UPF
Ti2    47.86700  Ti.rel-pz-spn-rrkjus_psl.1.0.0.UPF

ATOMIC_POSITIONS {alat}
Pt1     0.000000   0.000000   0.000000
Pt2    -0.250000   0.250000   0.000000
Pt2     0.000000   0.250000   0.250000
Pt1    -0.250000   0.500000   0.250000
Ti1    -0.250000   0.000000   0.250000
Ti2    -0.500000   0.250000   0.250000
Ti2    -0.250000   0.250000   0.500000
Ti1    -0.500000   0.500000   0.500000
