&CONTROL
    pseudo_dir = "/home/mgaffar/.burai/.pseudopot"
/

&SYSTEM
    a     =  1.46680e+00
    c     =  2.23953e+01
    ibrav = 4
    nat   = 3
    ntyp  = 2
/

ATOMIC_SPECIES
Ti     47.86700  Ti.rel-pz-spn-rrkjus_psl.1.0.0.UPF
Pt    195.07800  Pt.rel-pz-n-rrkjus_psl.0.1.UPF

ATOMIC_POSITIONS {crystal}
Ti      0.333334   0.666669   0.553477
Ti      0.666669   0.333334   0.500000  0 0 0
Pt      0.000000   0.000000   0.446522  0 0 0


