&CONTROL
    calculation   = "vc-relax"
    forc_conv_thr =  1.00000e-03
    max_seconds   =  8.64000e+04
    nstep         = 100
    outdir        = "tmp"
    prefix        = "Pt"
    pseudo_dir    = "pseudo"
    restart_mode  = "from_scratch"
    tprnfor       = .TRUE.
    tstress       = .TRUE.
/

&SYSTEM
    degauss                   =  2.00000e-02
    ecutrho                   =  4.67000e+02
    ecutwfc                   =  4.01560e+01
    ibrav                     = 0
    lspinorb                  = .TRUE.
    nat                       = 12
    noncolin                  = .TRUE.
    nosym                     = .FALSE.
    ntyp                      = 2
    occupations               = "smearing"
    smearing                  = "marzari-vanderbilt"
    starting_magnetization    =  0.00000e+00
    starting_magnetization(1) =  0.00000e+00
/

&ELECTRONS
    conv_thr         =  1.00000e-08
    electron_maxstep = 200
    mixing_beta      =  7.00000e-01
    startingpot      = "atomic"
    startingwfc      = "atomic+random"
/

&IONS
    ion_dynamics = "bfgs"
/

&CELL
    cell_dynamics  = "bfgs"
    press_conv_thr =  5.00000e-01
/

K_POINTS {automatic}
 4  4  4  0 0 0

CELL_PARAMETERS {angstrom}
 -3.926490   0.000000   3.926490
  0.000000   5.889735   5.889735
 -3.926490   3.926490   0.000000

ATOMIC_SPECIES
Pt    195.08400  Pt.rel-pz-n-rrkjus_psl.0.1.UPF
Ti     47.86700  Ti.rel-pz-spn-rrkjus_psl.1.0.0.UPF

ATOMIC_POSITIONS {alat}
Pt      0.000000   0.000000   0.000000
Pt     -0.353553   0.353553   0.000000
Pt      0.000000   0.353553   0.353553
Pt     -0.353553   0.707107   0.353553
Ti      0.000000   0.707107   0.707107
Ti     -0.353553   1.060660   0.707107
Pt     -0.353553   0.000000   0.353553
Pt     -0.707107   0.353553   0.353553
Pt     -0.353553   0.353553   0.707107
Pt     -0.707107   0.707107   0.707107
Ti     -1.060660   1.414214   1.060660
Ti     -0.707107   1.060660   1.060660
